num_offers = 40;
num_halls = 10;
start=[18,25,62,55,2,29,41,57,43,3,9,37,25,56,27,23,57,78,21,21,82,17,15,46,11,1,31,21,8,12,49,54,26,1,40,28,9,38,42,24];
end=[38,31,92,80,84,54,95,89,84,45,69,60,42,93,44,74,92,85,84,64,98,27,80,99,48,47,32,30,28,76,92,80,84,17,100,49,52,63,67,86];
price=[1816,250,2501,1637,922,788,3878,2872,768,2149,4120,756,1199,3462,676,5100,3098,709,5277,830,889,561,4368,2368,3284,4101,141,241,936,5607,2815,2305,3203,1013,4476,830,1706,2179,2007,3200];
requirement=[786,661,444,664,462,295,954,757,301,560,799,877,707,448,639,734,823,707,666,317,212,201,202,740,308,924,845,241,912,244,898,421,638,416,823,515,536,274,448,240];
capacity=[799,617,737,556,429,892,263,764,499,918];
